CPXPARAM_MIP_Cuts_Disjunctive#P15#0#CPXPARAM_MIP_Cuts_Gomory#P18#0#1.083414#0.190362
CPXPARAM_MIP_Cuts_Disjunctive#P15#0#CPXPARAM_MIP_Cuts_Gomory#P18#1#2.946424#0.517702
CPXPARAM_MIP_Cuts_Disjunctive#P15#0#CPXPARAM_MIP_Cuts_Gomory#P18#2#3.872945#0.680497
CPXPARAM_MIP_Cuts_Disjunctive#P15#1#CPXPARAM_MIP_Cuts_Gomory#P18#1#2.938608#0.516329
CPXPARAM_MIP_Cuts_Disjunctive#P15#2#CPXPARAM_MIP_Cuts_Gomory#P18#1#1.912075#0.335962
CPXPARAM_MIP_Cuts_Disjunctive#P15#3#CPXPARAM_MIP_Cuts_Gomory#P18#0#5.200788#0.913806
CPXPARAM_MIP_Cuts_Disjunctive#P15#3#CPXPARAM_MIP_Cuts_Gomory#P18#1#5.691348#1.000000
